\Problem name: compact

Minimize
OBJROW: C
Subject To
ord(0,1):  x(0,0) - x(0,1) >= 1
ord(0,2):  - x(0,0) + x(0,3) >= 1
ord(0,3):  x(0,2) - x(0,3) >= 9
ord(1,1):  - x(1,0) + x(1,3) >= 7
ord(1,2):  x(1,1) - x(1,3) >= 6
ord(1,3):  - x(1,1) + x(1,2) >= 2
ord(2,1):  - x(2,0) + x(2,3) >= 3
ord(2,2):  x(2,2) - x(2,3) >= 8
ord(2,3):  x(2,1) - x(2,2) >= 9
ord(3,1):  - x(3,1) + x(3,3) >= 9
ord(3,2):  x(3,0) - x(3,3) >= 6
ord(3,3):  - x(3,0) + x(3,2) >= 9
ord(4,1):  - x(4,0) + x(4,1) >= 4
ord(4,2):  - x(4,1) + x(4,3) >= 10
ord(4,3):  x(4,2) - x(4,3) >= 1
triangle2(0,1,0):  y(0,1,0) + y(1,0,0) = 1
triangle2(0,1,1):  y(0,1,1) + y(1,0,1) = 1
triangle2(0,1,2):  y(0,1,2) + y(1,0,2) = 1
triangle2(0,1,3):  y(0,1,3) + y(1,0,3) = 1
triangle2(0,2,0):  y(0,2,0) + y(2,0,0) = 1
triangle2(0,2,1):  y(0,2,1) + y(2,0,1) = 1
triangle2(0,2,2):  y(0,2,2) + y(2,0,2) = 1
triangle2(0,2,3):  y(0,2,3) + y(2,0,3) = 1
triangle2(0,3,0):  y(0,3,0) + y(3,0,0) = 1
triangle2(0,3,1):  y(0,3,1) + y(3,0,1) = 1
triangle2(0,3,2):  y(0,3,2) + y(3,0,2) = 1
triangle2(0,3,3):  y(0,3,3) + y(3,0,3) = 1
triangle2(0,4,0):  y(0,4,0) + y(4,0,0) = 1
triangle2(0,4,1):  y(0,4,1) + y(4,0,1) = 1
triangle2(0,4,2):  y(0,4,2) + y(4,0,2) = 1
triangle2(0,4,3):  y(0,4,3) + y(4,0,3) = 1
triangle2(1,2,0):  y(1,2,0) + y(2,1,0) = 1
triangle2(1,2,1):  y(1,2,1) + y(2,1,1) = 1
triangle2(1,2,2):  y(1,2,2) + y(2,1,2) = 1
triangle2(1,2,3):  y(1,2,3) + y(2,1,3) = 1
triangle2(1,3,0):  y(1,3,0) + y(3,1,0) = 1
triangle2(1,3,1):  y(1,3,1) + y(3,1,1) = 1
triangle2(1,3,2):  y(1,3,2) + y(3,1,2) = 1
triangle2(1,3,3):  y(1,3,3) + y(3,1,3) = 1
triangle2(1,4,0):  y(1,4,0) + y(4,1,0) = 1
triangle2(1,4,1):  y(1,4,1) + y(4,1,1) = 1
triangle2(1,4,2):  y(1,4,2) + y(4,1,2) = 1
triangle2(1,4,3):  y(1,4,3) + y(4,1,3) = 1
triangle2(2,3,0):  y(2,3,0) + y(3,2,0) = 1
triangle2(2,3,1):  y(2,3,1) + y(3,2,1) = 1
triangle2(2,3,2):  y(2,3,2) + y(3,2,2) = 1
triangle2(2,3,3):  y(2,3,3) + y(3,2,3) = 1
triangle2(2,4,0):  y(2,4,0) + y(4,2,0) = 1
triangle2(2,4,1):  y(2,4,1) + y(4,2,1) = 1
triangle2(2,4,2):  y(2,4,2) + y(4,2,2) = 1
triangle2(2,4,3):  y(2,4,3) + y(4,2,3) = 1
triangle2(3,4,0):  y(3,4,0) + y(4,3,0) = 1
triangle2(3,4,1):  y(3,4,1) + y(4,3,1) = 1
triangle2(3,4,2):  y(3,4,2) + y(4,3,2) = 1
triangle2(3,4,3):  y(3,4,3) + y(4,3,3) = 1
MCLinV(0,1,0):  x(0,0) - v(0,1,0) - x(1,0) = 7
MCLinV(1,0,0):  - x(0,0) - v(1,0,0) + x(1,0) = 1
MCLin1(0,1,0):  u(0,1,0) >= -0
MCLin2(0,1,0):  -89 y(1,0,0) - u(0,1,0) <= -0
MCLin3(0,1,0):  81 y(1,0,0) + v(0,1,0) - u(0,1,0) <= 81
MCLin4(0,1,0):  81 y(1,0,0) - u(0,1,0) >= -0
MCLin5(0,1,0):  -89 y(1,0,0) + v(0,1,0) - u(0,1,0) >= -89
MCLin6(1,0,0):  u(1,0,0) >= -0
MCLin7(1,0,0):  -89 y(0,1,0) - u(1,0,0) <= -0
MCLin8(1,0,0):  81 y(0,1,0) + v(1,0,0) - u(1,0,0) <= 81
MCLin9(1,0,0):  81 y(0,1,0) - u(1,0,0) >= -0
MCLin10(1,0,0):  -89 y(0,1,0) + v(1,0,0) - u(1,0,0) >= -89
MCLinV(0,1,1):  x(0,1) - v(0,1,1) - x(1,1) = 2
MCLinV(1,0,1):  - x(0,1) - v(1,0,1) + x(1,1) = 1
MCLin1(0,1,1):  u(0,1,1) >= -0
MCLin2(0,1,1):  -98 y(1,0,1) - u(0,1,1) <= -0
MCLin3(0,1,1):  72 y(1,0,1) + v(0,1,1) - u(0,1,1) <= 72
MCLin4(0,1,1):  72 y(1,0,1) - u(0,1,1) >= -0
MCLin5(0,1,1):  -98 y(1,0,1) + v(0,1,1) - u(0,1,1) >= -98
MCLin6(1,0,1):  u(1,0,1) >= -0
MCLin7(1,0,1):  -75 y(0,1,1) - u(1,0,1) <= -0
MCLin8(1,0,1):  95 y(0,1,1) + v(1,0,1) - u(1,0,1) <= 95
MCLin9(1,0,1):  95 y(0,1,1) - u(1,0,1) >= -0
MCLin10(1,0,1):  -75 y(0,1,1) + v(1,0,1) - u(1,0,1) >= -75
MCLinV(0,1,2):  x(0,2) - v(0,1,2) - x(1,2) = 1
MCLinV(1,0,2):  - x(0,2) - v(1,0,2) + x(1,2) = 1
MCLin1(0,1,2):  u(0,1,2) >= -0
MCLin2(0,1,2):  -88 y(1,0,2) - u(0,1,2) <= -0
MCLin3(0,1,2):  82 y(1,0,2) + v(0,1,2) - u(0,1,2) <= 82
MCLin4(0,1,2):  82 y(1,0,2) - u(0,1,2) >= -0
MCLin5(0,1,2):  -88 y(1,0,2) + v(0,1,2) - u(0,1,2) >= -88
MCLin6(1,0,2):  u(1,0,2) >= -0
MCLin7(1,0,2):  -84 y(0,1,2) - u(1,0,2) <= -0
MCLin8(1,0,2):  86 y(0,1,2) + v(1,0,2) - u(1,0,2) <= 86
MCLin9(1,0,2):  86 y(0,1,2) - u(1,0,2) >= -0
MCLin10(1,0,2):  -84 y(0,1,2) + v(1,0,2) - u(1,0,2) >= -84
MCLinV(0,1,3):  x(0,3) - v(0,1,3) - x(1,3) = 6
MCLinV(1,0,3):  - x(0,3) - v(1,0,3) + x(1,3) = 9
MCLin1(0,1,3):  u(0,1,3) >= -0
MCLin2(0,1,3):  -94 y(1,0,3) - u(0,1,3) <= -0
MCLin3(0,1,3):  76 y(1,0,3) + v(0,1,3) - u(0,1,3) <= 76
MCLin4(0,1,3):  76 y(1,0,3) - u(0,1,3) >= -0
MCLin5(0,1,3):  -94 y(1,0,3) + v(0,1,3) - u(0,1,3) >= -94
MCLin6(1,0,3):  u(1,0,3) >= -0
MCLin7(1,0,3):  -91 y(0,1,3) - u(1,0,3) <= -0
MCLin8(1,0,3):  79 y(0,1,3) + v(1,0,3) - u(1,0,3) <= 79
MCLin9(1,0,3):  79 y(0,1,3) - u(1,0,3) >= -0
MCLin10(1,0,3):  -91 y(0,1,3) + v(1,0,3) - u(1,0,3) >= -91
MCLinV(0,2,0):  x(0,0) - v(0,2,0) - x(2,0) = 3
MCLinV(2,0,0):  - x(0,0) - v(2,0,0) + x(2,0) = 1
MCLin1(0,2,0):  u(0,2,0) >= -0
MCLin2(0,2,0):  -76 y(2,0,0) - u(0,2,0) <= -0
MCLin3(0,2,0):  85 y(2,0,0) + v(0,2,0) - u(0,2,0) <= 85
MCLin4(0,2,0):  85 y(2,0,0) - u(0,2,0) >= -0
MCLin5(0,2,0):  -76 y(2,0,0) + v(0,2,0) - u(0,2,0) >= -76
MCLin6(2,0,0):  u(2,0,0) >= -0
MCLin7(2,0,0):  -89 y(0,2,0) - u(2,0,0) <= -0
MCLin8(2,0,0):  72 y(0,2,0) + v(2,0,0) - u(2,0,0) <= 72
MCLin9(2,0,0):  72 y(0,2,0) - u(2,0,0) >= -0
MCLin10(2,0,0):  -89 y(0,2,0) + v(2,0,0) - u(2,0,0) >= -89
MCLinV(0,2,1):  x(0,1) - v(0,2,1) - x(2,1) = 5
MCLinV(2,0,1):  - x(0,1) - v(2,0,1) + x(2,1) = 1
MCLin1(0,2,1):  u(0,2,1) >= -0
MCLin2(0,2,1):  -99 y(2,0,1) - u(0,2,1) <= -0
MCLin3(0,2,1):  62 y(2,0,1) + v(0,2,1) - u(0,2,1) <= 62
MCLin4(0,2,1):  62 y(2,0,1) - u(0,2,1) >= -0
MCLin5(0,2,1):  -99 y(2,0,1) + v(0,2,1) - u(0,2,1) >= -99
MCLin6(2,0,1):  u(2,0,1) >= -0
MCLin7(2,0,1):  -68 y(0,2,1) - u(2,0,1) <= -0
MCLin8(2,0,1):  93 y(0,2,1) + v(2,0,1) - u(2,0,1) <= 93
MCLin9(2,0,1):  93 y(0,2,1) - u(2,0,1) >= -0
MCLin10(2,0,1):  -68 y(0,2,1) + v(2,0,1) - u(2,0,1) >= -68
MCLinV(0,2,2):  x(0,2) - v(0,2,2) - x(2,2) = 9
MCLinV(2,0,2):  - x(0,2) - v(2,0,2) + x(2,2) = 1
MCLin1(0,2,2):  u(0,2,2) >= -0
MCLin2(0,2,2):  -83 y(2,0,2) - u(0,2,2) <= -0
MCLin3(0,2,2):  78 y(2,0,2) + v(0,2,2) - u(0,2,2) <= 78
MCLin4(0,2,2):  78 y(2,0,2) - u(0,2,2) >= -0
MCLin5(0,2,2):  -83 y(2,0,2) + v(0,2,2) - u(0,2,2) >= -83
MCLin6(2,0,2):  u(2,0,2) >= -0
MCLin7(2,0,2):  -88 y(0,2,2) - u(2,0,2) <= -0
MCLin8(2,0,2):  73 y(0,2,2) + v(2,0,2) - u(2,0,2) <= 73
MCLin9(2,0,2):  73 y(0,2,2) - u(2,0,2) >= -0
MCLin10(2,0,2):  -88 y(0,2,2) + v(2,0,2) - u(2,0,2) >= -88
MCLinV(0,2,3):  x(0,3) - v(0,2,3) - x(2,3) = 8
MCLinV(2,0,3):  - x(0,3) - v(2,0,3) + x(2,3) = 9
MCLin1(0,2,3):  u(0,2,3) >= -0
MCLin2(0,2,3):  -83 y(2,0,3) - u(0,2,3) <= -0
MCLin3(0,2,3):  78 y(2,0,3) + v(0,2,3) - u(0,2,3) <= 78
MCLin4(0,2,3):  78 y(2,0,3) - u(0,2,3) >= -0
MCLin5(0,2,3):  -83 y(2,0,3) + v(0,2,3) - u(0,2,3) >= -83
MCLin6(2,0,3):  u(2,0,3) >= -0
MCLin7(2,0,3):  -95 y(0,2,3) - u(2,0,3) <= -0
MCLin8(2,0,3):  66 y(0,2,3) + v(2,0,3) - u(2,0,3) <= 66
MCLin9(2,0,3):  66 y(0,2,3) - u(2,0,3) >= -0
MCLin10(2,0,3):  -95 y(0,2,3) + v(2,0,3) - u(2,0,3) >= -95
MCLinV(0,3,0):  x(0,0) - v(0,3,0) - x(3,0) = 9
MCLinV(3,0,0):  - x(0,0) - v(3,0,0) + x(3,0) = 1
MCLin1(0,3,0):  u(0,3,0) >= -0
MCLin2(0,3,0):  -97 y(3,0,0) - u(0,3,0) <= -0
MCLin3(0,3,0):  64 y(3,0,0) + v(0,3,0) - u(0,3,0) <= 64
MCLin4(0,3,0):  64 y(3,0,0) - u(0,3,0) >= -0
MCLin5(0,3,0):  -97 y(3,0,0) + v(0,3,0) - u(0,3,0) >= -97
MCLin6(3,0,0):  u(3,0,0) >= -0
MCLin7(3,0,0):  -74 y(0,3,0) - u(3,0,0) <= -0
MCLin8(3,0,0):  87 y(0,3,0) + v(3,0,0) - u(3,0,0) <= 87
MCLin9(3,0,0):  87 y(0,3,0) - u(3,0,0) >= -0
MCLin10(3,0,0):  -74 y(0,3,0) + v(3,0,0) - u(3,0,0) >= -74
MCLinV(0,3,1):  x(0,1) - v(0,3,1) - x(3,1) = 9
MCLinV(3,0,1):  - x(0,1) - v(3,0,1) + x(3,1) = 1
MCLin1(0,3,1):  u(0,3,1) >= -0
MCLin2(0,3,1):  -83 y(3,0,1) - u(0,3,1) <= -0
MCLin3(0,3,1):  78 y(3,0,1) + v(0,3,1) - u(0,3,1) <= 78
MCLin4(0,3,1):  78 y(3,0,1) - u(0,3,1) >= -0
MCLin5(0,3,1):  -83 y(3,0,1) + v(0,3,1) - u(0,3,1) >= -83
MCLin6(3,0,1):  u(3,0,1) >= -0
MCLin7(3,0,1):  -88 y(0,3,1) - u(3,0,1) <= -0
MCLin8(3,0,1):  73 y(0,3,1) + v(3,0,1) - u(3,0,1) <= 73
MCLin9(3,0,1):  73 y(0,3,1) - u(3,0,1) >= -0
MCLin10(3,0,1):  -88 y(0,3,1) + v(3,0,1) - u(3,0,1) >= -88
MCLinV(0,3,2):  x(0,2) - v(0,3,2) - x(3,2) = 1
MCLinV(3,0,2):  - x(0,2) - v(3,0,2) + x(3,2) = 1
MCLin1(0,3,2):  u(0,3,2) >= -0
MCLin2(0,3,2):  -88 y(3,0,2) - u(0,3,2) <= -0
MCLin3(0,3,2):  73 y(3,0,2) + v(0,3,2) - u(0,3,2) <= 73
MCLin4(0,3,2):  73 y(3,0,2) - u(0,3,2) >= -0
MCLin5(0,3,2):  -88 y(3,0,2) + v(0,3,2) - u(0,3,2) >= -88
MCLin6(3,0,2):  u(3,0,2) >= -0
MCLin7(3,0,2):  -75 y(0,3,2) - u(3,0,2) <= -0
MCLin8(3,0,2):  86 y(0,3,2) + v(3,0,2) - u(3,0,2) <= 86
MCLin9(3,0,2):  86 y(0,3,2) - u(3,0,2) >= -0
MCLin10(3,0,2):  -75 y(0,3,2) + v(3,0,2) - u(3,0,2) >= -75
MCLinV(0,3,3):  x(0,3) - v(0,3,3) - x(3,3) = 6
MCLinV(3,0,3):  - x(0,3) - v(3,0,3) + x(3,3) = 9
MCLin1(0,3,3):  u(0,3,3) >= -0
MCLin2(0,3,3):  -87 y(3,0,3) - u(0,3,3) <= -0
MCLin3(0,3,3):  74 y(3,0,3) + v(0,3,3) - u(0,3,3) <= 74
MCLin4(0,3,3):  74 y(3,0,3) - u(0,3,3) >= -0
MCLin5(0,3,3):  -87 y(3,0,3) + v(0,3,3) - u(0,3,3) >= -87
MCLin6(3,0,3):  u(3,0,3) >= -0
MCLin7(3,0,3):  -89 y(0,3,3) - u(3,0,3) <= -0
MCLin8(3,0,3):  72 y(0,3,3) + v(3,0,3) - u(3,0,3) <= 72
MCLin9(3,0,3):  72 y(0,3,3) - u(3,0,3) >= -0
MCLin10(3,0,3):  -89 y(0,3,3) + v(3,0,3) - u(3,0,3) >= -89
MCLinV(0,4,0):  x(0,0) - v(0,4,0) - x(4,0) = 4
MCLinV(4,0,0):  - x(0,0) - v(4,0,0) + x(4,0) = 1
MCLin1(0,4,0):  u(0,4,0) >= -0
MCLin2(0,4,0):  -81 y(4,0,0) - u(0,4,0) <= -0
MCLin3(0,4,0):  84 y(4,0,0) + v(0,4,0) - u(0,4,0) <= 84
MCLin4(0,4,0):  84 y(4,0,0) - u(0,4,0) >= -0
MCLin5(0,4,0):  -81 y(4,0,0) + v(0,4,0) - u(0,4,0) >= -81
MCLin6(4,0,0):  u(4,0,0) >= -0
MCLin7(4,0,0):  -89 y(0,4,0) - u(4,0,0) <= -0
MCLin8(4,0,0):  76 y(0,4,0) + v(4,0,0) - u(4,0,0) <= 76
MCLin9(4,0,0):  76 y(0,4,0) - u(4,0,0) >= -0
MCLin10(4,0,0):  -89 y(0,4,0) + v(4,0,0) - u(4,0,0) >= -89
MCLinV(0,4,1):  x(0,1) - v(0,4,1) - x(4,1) = 10
MCLinV(4,0,1):  - x(0,1) - v(4,0,1) + x(4,1) = 1
MCLin1(0,4,1):  u(0,4,1) >= -0
MCLin2(0,4,1):  -92 y(4,0,1) - u(0,4,1) <= -0
MCLin3(0,4,1):  73 y(4,0,1) + v(0,4,1) - u(0,4,1) <= 73
MCLin4(0,4,1):  73 y(4,0,1) - u(0,4,1) >= -0
MCLin5(0,4,1):  -92 y(4,0,1) + v(0,4,1) - u(0,4,1) >= -92
MCLin6(4,0,1):  u(4,0,1) >= -0
MCLin7(4,0,1):  -84 y(0,4,1) - u(4,0,1) <= -0
MCLin8(4,0,1):  81 y(0,4,1) + v(4,0,1) - u(4,0,1) <= 81
MCLin9(4,0,1):  81 y(0,4,1) - u(4,0,1) >= -0
MCLin10(4,0,1):  -84 y(0,4,1) + v(4,0,1) - u(4,0,1) >= -84
MCLinV(0,4,2):  x(0,2) - v(0,4,2) - x(4,2) = 6
MCLinV(4,0,2):  - x(0,2) - v(4,0,2) + x(4,2) = 1
MCLin1(0,4,2):  u(0,4,2) >= -0
MCLin2(0,4,2):  -88 y(4,0,2) - u(0,4,2) <= -0
MCLin3(0,4,2):  77 y(4,0,2) + v(0,4,2) - u(0,4,2) <= 77
MCLin4(0,4,2):  77 y(4,0,2) - u(0,4,2) >= -0
MCLin5(0,4,2):  -88 y(4,0,2) + v(0,4,2) - u(0,4,2) >= -88
MCLin6(4,0,2):  u(4,0,2) >= -0
MCLin7(4,0,2):  -84 y(0,4,2) - u(4,0,2) <= -0
MCLin8(4,0,2):  81 y(0,4,2) + v(4,0,2) - u(4,0,2) <= 81
MCLin9(4,0,2):  81 y(0,4,2) - u(4,0,2) >= -0
MCLin10(4,0,2):  -84 y(0,4,2) + v(4,0,2) - u(4,0,2) >= -84
MCLinV(0,4,3):  x(0,3) - v(0,4,3) - x(4,3) = 1
MCLinV(4,0,3):  - x(0,3) - v(4,0,3) + x(4,3) = 9
MCLin1(0,4,3):  u(0,4,3) >= -0
MCLin2(0,4,3):  -91 y(4,0,3) - u(0,4,3) <= -0
MCLin3(0,4,3):  74 y(4,0,3) + v(0,4,3) - u(0,4,3) <= 74
MCLin4(0,4,3):  74 y(4,0,3) - u(0,4,3) >= -0
MCLin5(0,4,3):  -91 y(4,0,3) + v(0,4,3) - u(0,4,3) >= -91
MCLin6(4,0,3):  u(4,0,3) >= -0
MCLin7(4,0,3):  -84 y(0,4,3) - u(4,0,3) <= -0
MCLin8(4,0,3):  81 y(0,4,3) + v(4,0,3) - u(4,0,3) <= 81
MCLin9(4,0,3):  81 y(0,4,3) - u(4,0,3) >= -0
MCLin10(4,0,3):  -84 y(0,4,3) + v(4,0,3) - u(4,0,3) >= -84
MCLinV(1,2,0):  x(1,0) - v(1,2,0) - x(2,0) = 3
MCLinV(2,1,0):  - x(1,0) - v(2,1,0) + x(2,0) = 7
MCLin1(1,2,0):  u(1,2,0) >= -0
MCLin2(1,2,0):  -77 y(2,1,0) - u(1,2,0) <= -0
MCLin3(1,2,0):  80 y(2,1,0) + v(1,2,0) - u(1,2,0) <= 80
MCLin4(1,2,0):  80 y(2,1,0) - u(1,2,0) >= -0
MCLin5(1,2,0):  -77 y(2,1,0) + v(1,2,0) - u(1,2,0) >= -77
MCLin6(2,1,0):  u(2,1,0) >= -0
MCLin7(2,1,0):  -90 y(1,2,0) - u(2,1,0) <= -0
MCLin8(2,1,0):  67 y(1,2,0) + v(2,1,0) - u(2,1,0) <= 67
MCLin9(2,1,0):  67 y(1,2,0) - u(2,1,0) >= -0
MCLin10(2,1,0):  -90 y(1,2,0) + v(2,1,0) - u(2,1,0) >= -90
MCLinV(1,2,1):  x(1,1) - v(1,2,1) - x(2,1) = 5
MCLinV(2,1,1):  - x(1,1) - v(2,1,1) + x(2,1) = 2
MCLin1(1,2,1):  u(1,2,1) >= -0
MCLin2(1,2,1):  -86 y(2,1,1) - u(1,2,1) <= -0
MCLin3(1,2,1):  71 y(2,1,1) + v(1,2,1) - u(1,2,1) <= 71
MCLin4(1,2,1):  71 y(2,1,1) - u(1,2,1) >= -0
MCLin5(1,2,1):  -86 y(2,1,1) + v(1,2,1) - u(1,2,1) >= -86
MCLin6(2,1,1):  u(2,1,1) >= -0
MCLin7(2,1,1):  -78 y(1,2,1) - u(2,1,1) <= -0
MCLin8(2,1,1):  79 y(1,2,1) + v(2,1,1) - u(2,1,1) <= 79
MCLin9(2,1,1):  79 y(1,2,1) - u(2,1,1) >= -0
MCLin10(2,1,1):  -78 y(1,2,1) + v(2,1,1) - u(2,1,1) >= -78
MCLinV(1,2,2):  x(1,2) - v(1,2,2) - x(2,2) = 9
MCLinV(2,1,2):  - x(1,2) - v(2,1,2) + x(2,2) = 1
MCLin1(1,2,2):  u(1,2,2) >= -0
MCLin2(1,2,2):  -79 y(2,1,2) - u(1,2,2) <= -0
MCLin3(1,2,2):  78 y(2,1,2) + v(1,2,2) - u(1,2,2) <= 78
MCLin4(1,2,2):  78 y(2,1,2) - u(1,2,2) >= -0
MCLin5(1,2,2):  -79 y(2,1,2) + v(1,2,2) - u(1,2,2) >= -79
MCLin6(2,1,2):  u(2,1,2) >= -0
MCLin7(2,1,2):  -88 y(1,2,2) - u(2,1,2) <= -0
MCLin8(2,1,2):  69 y(1,2,2) + v(2,1,2) - u(2,1,2) <= 69
MCLin9(2,1,2):  69 y(1,2,2) - u(2,1,2) >= -0
MCLin10(2,1,2):  -88 y(1,2,2) + v(2,1,2) - u(2,1,2) >= -88
MCLinV(1,2,3):  x(1,3) - v(1,2,3) - x(2,3) = 8
MCLinV(2,1,3):  - x(1,3) - v(2,1,3) + x(2,3) = 6
MCLin1(1,2,3):  u(1,2,3) >= -0
MCLin2(1,2,3):  -78 y(2,1,3) - u(1,2,3) <= -0
MCLin3(1,2,3):  79 y(2,1,3) + v(1,2,3) - u(1,2,3) <= 79
MCLin4(1,2,3):  79 y(2,1,3) - u(1,2,3) >= -0
MCLin5(1,2,3):  -78 y(2,1,3) + v(1,2,3) - u(1,2,3) >= -78
MCLin6(2,1,3):  u(2,1,3) >= -0
MCLin7(2,1,3):  -93 y(1,2,3) - u(2,1,3) <= -0
MCLin8(2,1,3):  64 y(1,2,3) + v(2,1,3) - u(2,1,3) <= 64
MCLin9(2,1,3):  64 y(1,2,3) - u(2,1,3) >= -0
MCLin10(2,1,3):  -93 y(1,2,3) + v(2,1,3) - u(2,1,3) >= -93
MCLinV(1,3,0):  x(1,0) - v(1,3,0) - x(3,0) = 9
MCLinV(3,1,0):  - x(1,0) - v(3,1,0) + x(3,0) = 7
MCLin1(1,3,0):  u(1,3,0) >= -0
MCLin2(1,3,0):  -98 y(3,1,0) - u(1,3,0) <= -0
MCLin3(1,3,0):  59 y(3,1,0) + v(1,3,0) - u(1,3,0) <= 59
MCLin4(1,3,0):  59 y(3,1,0) - u(1,3,0) >= -0
MCLin5(1,3,0):  -98 y(3,1,0) + v(1,3,0) - u(1,3,0) >= -98
MCLin6(3,1,0):  u(3,1,0) >= -0
MCLin7(3,1,0):  -75 y(1,3,0) - u(3,1,0) <= -0
MCLin8(3,1,0):  82 y(1,3,0) + v(3,1,0) - u(3,1,0) <= 82
MCLin9(3,1,0):  82 y(1,3,0) - u(3,1,0) >= -0
MCLin10(3,1,0):  -75 y(1,3,0) + v(3,1,0) - u(3,1,0) >= -75
MCLinV(1,3,1):  x(1,1) - v(1,3,1) - x(3,1) = 9
MCLinV(3,1,1):  - x(1,1) - v(3,1,1) + x(3,1) = 2
MCLin1(1,3,1):  u(1,3,1) >= -0
MCLin2(1,3,1):  -70 y(3,1,1) - u(1,3,1) <= -0
MCLin3(1,3,1):  87 y(3,1,1) + v(1,3,1) - u(1,3,1) <= 87
MCLin4(1,3,1):  87 y(3,1,1) - u(1,3,1) >= -0
MCLin5(1,3,1):  -70 y(3,1,1) + v(1,3,1) - u(1,3,1) >= -70
MCLin6(3,1,1):  u(3,1,1) >= -0
MCLin7(3,1,1):  -98 y(1,3,1) - u(3,1,1) <= -0
MCLin8(3,1,1):  59 y(1,3,1) + v(3,1,1) - u(3,1,1) <= 59
MCLin9(3,1,1):  59 y(1,3,1) - u(3,1,1) >= -0
MCLin10(3,1,1):  -98 y(1,3,1) + v(3,1,1) - u(3,1,1) >= -98
MCLinV(1,3,2):  x(1,2) - v(1,3,2) - x(3,2) = 1
MCLinV(3,1,2):  - x(1,2) - v(3,1,2) + x(3,2) = 1
MCLin1(1,3,2):  u(1,3,2) >= -0
MCLin2(1,3,2):  -84 y(3,1,2) - u(1,3,2) <= -0
MCLin3(1,3,2):  73 y(3,1,2) + v(1,3,2) - u(1,3,2) <= 73
MCLin4(1,3,2):  73 y(3,1,2) - u(1,3,2) >= -0
MCLin5(1,3,2):  -84 y(3,1,2) + v(1,3,2) - u(1,3,2) >= -84
MCLin6(3,1,2):  u(3,1,2) >= -0
MCLin7(3,1,2):  -75 y(1,3,2) - u(3,1,2) <= -0
MCLin8(3,1,2):  82 y(1,3,2) + v(3,1,2) - u(3,1,2) <= 82
MCLin9(3,1,2):  82 y(1,3,2) - u(3,1,2) >= -0
MCLin10(3,1,2):  -75 y(1,3,2) + v(3,1,2) - u(3,1,2) >= -75
MCLinV(1,3,3):  x(1,3) - v(1,3,3) - x(3,3) = 6
MCLinV(3,1,3):  - x(1,3) - v(3,1,3) + x(3,3) = 6
MCLin1(1,3,3):  u(1,3,3) >= -0
MCLin2(1,3,3):  -82 y(3,1,3) - u(1,3,3) <= -0
MCLin3(1,3,3):  75 y(3,1,3) + v(1,3,3) - u(1,3,3) <= 75
MCLin4(1,3,3):  75 y(3,1,3) - u(1,3,3) >= -0
MCLin5(1,3,3):  -82 y(3,1,3) + v(1,3,3) - u(1,3,3) >= -82
MCLin6(3,1,3):  u(3,1,3) >= -0
MCLin7(3,1,3):  -87 y(1,3,3) - u(3,1,3) <= -0
MCLin8(3,1,3):  70 y(1,3,3) + v(3,1,3) - u(3,1,3) <= 70
MCLin9(3,1,3):  70 y(1,3,3) - u(3,1,3) >= -0
MCLin10(3,1,3):  -87 y(1,3,3) + v(3,1,3) - u(3,1,3) >= -87
MCLinV(1,4,0):  x(1,0) - v(1,4,0) - x(4,0) = 4
MCLinV(4,1,0):  - x(1,0) - v(4,1,0) + x(4,0) = 7
MCLin1(1,4,0):  u(1,4,0) >= -0
MCLin2(1,4,0):  -82 y(4,1,0) - u(1,4,0) <= -0
MCLin3(1,4,0):  79 y(4,1,0) + v(1,4,0) - u(1,4,0) <= 79
MCLin4(1,4,0):  79 y(4,1,0) - u(1,4,0) >= -0
MCLin5(1,4,0):  -82 y(4,1,0) + v(1,4,0) - u(1,4,0) >= -82
MCLin6(4,1,0):  u(4,1,0) >= -0
MCLin7(4,1,0):  -90 y(1,4,0) - u(4,1,0) <= -0
MCLin8(4,1,0):  71 y(1,4,0) + v(4,1,0) - u(4,1,0) <= 71
MCLin9(4,1,0):  71 y(1,4,0) - u(4,1,0) >= -0
MCLin10(4,1,0):  -90 y(1,4,0) + v(4,1,0) - u(4,1,0) >= -90
MCLinV(1,4,1):  x(1,1) - v(1,4,1) - x(4,1) = 10
MCLinV(4,1,1):  - x(1,1) - v(4,1,1) + x(4,1) = 2
MCLin1(1,4,1):  u(1,4,1) >= -0
MCLin2(1,4,1):  -79 y(4,1,1) - u(1,4,1) <= -0
MCLin3(1,4,1):  82 y(4,1,1) + v(1,4,1) - u(1,4,1) <= 82
MCLin4(1,4,1):  82 y(4,1,1) - u(1,4,1) >= -0
MCLin5(1,4,1):  -79 y(4,1,1) + v(1,4,1) - u(1,4,1) >= -79
MCLin6(4,1,1):  u(4,1,1) >= -0
MCLin7(4,1,1):  -94 y(1,4,1) - u(4,1,1) <= -0
MCLin8(4,1,1):  67 y(1,4,1) + v(4,1,1) - u(4,1,1) <= 67
MCLin9(4,1,1):  67 y(1,4,1) - u(4,1,1) >= -0
MCLin10(4,1,1):  -94 y(1,4,1) + v(4,1,1) - u(4,1,1) >= -94
MCLinV(1,4,2):  x(1,2) - v(1,4,2) - x(4,2) = 6
MCLinV(4,1,2):  - x(1,2) - v(4,1,2) + x(4,2) = 1
MCLin1(1,4,2):  u(1,4,2) >= -0
MCLin2(1,4,2):  -84 y(4,1,2) - u(1,4,2) <= -0
MCLin3(1,4,2):  77 y(4,1,2) + v(1,4,2) - u(1,4,2) <= 77
MCLin4(1,4,2):  77 y(4,1,2) - u(1,4,2) >= -0
MCLin5(1,4,2):  -84 y(4,1,2) + v(1,4,2) - u(1,4,2) >= -84
MCLin6(4,1,2):  u(4,1,2) >= -0
MCLin7(4,1,2):  -84 y(1,4,2) - u(4,1,2) <= -0
MCLin8(4,1,2):  77 y(1,4,2) + v(4,1,2) - u(4,1,2) <= 77
MCLin9(4,1,2):  77 y(1,4,2) - u(4,1,2) >= -0
MCLin10(4,1,2):  -84 y(1,4,2) + v(4,1,2) - u(4,1,2) >= -84
MCLinV(1,4,3):  x(1,3) - v(1,4,3) - x(4,3) = 1
MCLinV(4,1,3):  - x(1,3) - v(4,1,3) + x(4,3) = 6
MCLin1(1,4,3):  u(1,4,3) >= -0
MCLin2(1,4,3):  -86 y(4,1,3) - u(1,4,3) <= -0
MCLin3(1,4,3):  75 y(4,1,3) + v(1,4,3) - u(1,4,3) <= 75
MCLin4(1,4,3):  75 y(4,1,3) - u(1,4,3) >= -0
MCLin5(1,4,3):  -86 y(4,1,3) + v(1,4,3) - u(1,4,3) >= -86
MCLin6(4,1,3):  u(4,1,3) >= -0
MCLin7(4,1,3):  -82 y(1,4,3) - u(4,1,3) <= -0
MCLin8(4,1,3):  79 y(1,4,3) + v(4,1,3) - u(4,1,3) <= 79
MCLin9(4,1,3):  79 y(1,4,3) - u(4,1,3) >= -0
MCLin10(4,1,3):  -82 y(1,4,3) + v(4,1,3) - u(4,1,3) >= -82
MCLinV(2,3,0):  x(2,0) - v(2,3,0) - x(3,0) = 9
MCLinV(3,2,0):  - x(2,0) - v(3,2,0) + x(3,0) = 3
MCLin1(2,3,0):  u(2,3,0) >= -0
MCLin2(2,3,0):  -98 y(3,2,0) - u(2,3,0) <= -0
MCLin3(2,3,0):  50 y(3,2,0) + v(2,3,0) - u(2,3,0) <= 50
MCLin4(2,3,0):  50 y(3,2,0) - u(2,3,0) >= -0
MCLin5(2,3,0):  -98 y(3,2,0) + v(2,3,0) - u(2,3,0) >= -98
MCLin6(3,2,0):  u(3,2,0) >= -0
MCLin7(3,2,0):  -62 y(2,3,0) - u(3,2,0) <= -0
MCLin8(3,2,0):  86 y(2,3,0) + v(3,2,0) - u(3,2,0) <= 86
MCLin9(3,2,0):  86 y(2,3,0) - u(3,2,0) >= -0
MCLin10(3,2,0):  -62 y(2,3,0) + v(3,2,0) - u(3,2,0) >= -62
MCLinV(2,3,1):  x(2,1) - v(2,3,1) - x(3,1) = 9
MCLinV(3,2,1):  - x(2,1) - v(3,2,1) + x(3,1) = 5
MCLin1(2,3,1):  u(2,3,1) >= -0
MCLin2(2,3,1):  -63 y(3,2,1) - u(2,3,1) <= -0
MCLin3(2,3,1):  85 y(3,2,1) + v(2,3,1) - u(2,3,1) <= 85
MCLin4(2,3,1):  85 y(3,2,1) - u(2,3,1) >= -0
MCLin5(2,3,1):  -63 y(3,2,1) + v(2,3,1) - u(2,3,1) >= -63
MCLin6(3,2,1):  u(3,2,1) >= -0
MCLin7(3,2,1):  -99 y(2,3,1) - u(3,2,1) <= -0
MCLin8(3,2,1):  49 y(2,3,1) + v(3,2,1) - u(3,2,1) <= 49
MCLin9(3,2,1):  49 y(2,3,1) - u(3,2,1) >= -0
MCLin10(3,2,1):  -99 y(2,3,1) + v(3,2,1) - u(3,2,1) >= -99
MCLinV(2,3,2):  x(2,2) - v(2,3,2) - x(3,2) = 1
MCLinV(3,2,2):  - x(2,2) - v(3,2,2) + x(3,2) = 9
MCLin1(2,3,2):  u(2,3,2) >= -0
MCLin2(2,3,2):  -88 y(3,2,2) - u(2,3,2) <= -0
MCLin3(2,3,2):  60 y(3,2,2) + v(2,3,2) - u(2,3,2) <= 60
MCLin4(2,3,2):  60 y(3,2,2) - u(2,3,2) >= -0
MCLin5(2,3,2):  -88 y(3,2,2) + v(2,3,2) - u(2,3,2) >= -88
MCLin6(3,2,2):  u(3,2,2) >= -0
MCLin7(3,2,2):  -70 y(2,3,2) - u(3,2,2) <= -0
MCLin8(3,2,2):  78 y(2,3,2) + v(3,2,2) - u(3,2,2) <= 78
MCLin9(3,2,2):  78 y(2,3,2) - u(3,2,2) >= -0
MCLin10(3,2,2):  -70 y(2,3,2) + v(3,2,2) - u(3,2,2) >= -70
MCLinV(2,3,3):  x(2,3) - v(2,3,3) - x(3,3) = 6
MCLinV(3,2,3):  - x(2,3) - v(3,2,3) + x(3,3) = 8
MCLin1(2,3,3):  u(2,3,3) >= -0
MCLin2(2,3,3):  -86 y(3,2,3) - u(2,3,3) <= -0
MCLin3(2,3,3):  62 y(3,2,3) + v(2,3,3) - u(2,3,3) <= 62
MCLin4(2,3,3):  62 y(3,2,3) - u(2,3,3) >= -0
MCLin5(2,3,3):  -86 y(3,2,3) + v(2,3,3) - u(2,3,3) >= -86
MCLin6(3,2,3):  u(3,2,3) >= -0
MCLin7(3,2,3):  -76 y(2,3,3) - u(3,2,3) <= -0
MCLin8(3,2,3):  72 y(2,3,3) + v(3,2,3) - u(3,2,3) <= 72
MCLin9(3,2,3):  72 y(2,3,3) - u(3,2,3) >= -0
MCLin10(3,2,3):  -76 y(2,3,3) + v(3,2,3) - u(3,2,3) >= -76
MCLinV(2,4,0):  x(2,0) - v(2,4,0) - x(4,0) = 4
MCLinV(4,2,0):  - x(2,0) - v(4,2,0) + x(4,0) = 3
MCLin1(2,4,0):  u(2,4,0) >= -0
MCLin2(2,4,0):  -82 y(4,2,0) - u(2,4,0) <= -0
MCLin3(2,4,0):  70 y(4,2,0) + v(2,4,0) - u(2,4,0) <= 70
MCLin4(2,4,0):  70 y(4,2,0) - u(2,4,0) >= -0
MCLin5(2,4,0):  -82 y(4,2,0) + v(2,4,0) - u(2,4,0) >= -82
MCLin6(4,2,0):  u(4,2,0) >= -0
MCLin7(4,2,0):  -77 y(2,4,0) - u(4,2,0) <= -0
MCLin8(4,2,0):  75 y(2,4,0) + v(4,2,0) - u(4,2,0) <= 75
MCLin9(4,2,0):  75 y(2,4,0) - u(4,2,0) >= -0
MCLin10(4,2,0):  -77 y(2,4,0) + v(4,2,0) - u(4,2,0) >= -77
MCLinV(2,4,1):  x(2,1) - v(2,4,1) - x(4,1) = 10
MCLinV(4,2,1):  - x(2,1) - v(4,2,1) + x(4,1) = 5
MCLin1(2,4,1):  u(2,4,1) >= -0
MCLin2(2,4,1):  -72 y(4,2,1) - u(2,4,1) <= -0
MCLin3(2,4,1):  80 y(4,2,1) + v(2,4,1) - u(2,4,1) <= 80
MCLin4(2,4,1):  80 y(4,2,1) - u(2,4,1) >= -0
MCLin5(2,4,1):  -72 y(4,2,1) + v(2,4,1) - u(2,4,1) >= -72
MCLin6(4,2,1):  u(4,2,1) >= -0
MCLin7(4,2,1):  -95 y(2,4,1) - u(4,2,1) <= -0
MCLin8(4,2,1):  57 y(2,4,1) + v(4,2,1) - u(4,2,1) <= 57
MCLin9(4,2,1):  57 y(2,4,1) - u(4,2,1) >= -0
MCLin10(4,2,1):  -95 y(2,4,1) + v(4,2,1) - u(4,2,1) >= -95
MCLinV(2,4,2):  x(2,2) - v(2,4,2) - x(4,2) = 6
MCLinV(4,2,2):  - x(2,2) - v(4,2,2) + x(4,2) = 9
MCLin1(2,4,2):  u(2,4,2) >= -0
MCLin2(2,4,2):  -88 y(4,2,2) - u(2,4,2) <= -0
MCLin3(2,4,2):  64 y(4,2,2) + v(2,4,2) - u(2,4,2) <= 64
MCLin4(2,4,2):  64 y(4,2,2) - u(2,4,2) >= -0
MCLin5(2,4,2):  -88 y(4,2,2) + v(2,4,2) - u(2,4,2) >= -88
MCLin6(4,2,2):  u(4,2,2) >= -0
MCLin7(4,2,2):  -79 y(2,4,2) - u(4,2,2) <= -0
MCLin8(4,2,2):  73 y(2,4,2) + v(4,2,2) - u(4,2,2) <= 73
MCLin9(4,2,2):  73 y(2,4,2) - u(4,2,2) >= -0
MCLin10(4,2,2):  -79 y(2,4,2) + v(4,2,2) - u(4,2,2) >= -79
MCLinV(2,4,3):  x(2,3) - v(2,4,3) - x(4,3) = 1
MCLinV(4,2,3):  - x(2,3) - v(4,2,3) + x(4,3) = 8
MCLin1(2,4,3):  u(2,4,3) >= -0
MCLin2(2,4,3):  -90 y(4,2,3) - u(2,4,3) <= -0
MCLin3(2,4,3):  62 y(4,2,3) + v(2,4,3) - u(2,4,3) <= 62
MCLin4(2,4,3):  62 y(4,2,3) - u(2,4,3) >= -0
MCLin5(2,4,3):  -90 y(4,2,3) + v(2,4,3) - u(2,4,3) >= -90
MCLin6(4,2,3):  u(4,2,3) >= -0
MCLin7(4,2,3):  -71 y(2,4,3) - u(4,2,3) <= -0
MCLin8(4,2,3):  81 y(2,4,3) + v(4,2,3) - u(4,2,3) <= 81
MCLin9(4,2,3):  81 y(2,4,3) - u(4,2,3) >= -0
MCLin10(4,2,3):  -71 y(2,4,3) + v(4,2,3) - u(4,2,3) >= -71
MCLinV(3,4,0):  x(3,0) - v(3,4,0) - x(4,0) = 4
MCLinV(4,3,0):  - x(3,0) - v(4,3,0) + x(4,0) = 9
MCLin1(3,4,0):  u(3,4,0) >= -0
MCLin2(3,4,0):  -67 y(4,3,0) - u(3,4,0) <= -0
MCLin3(3,4,0):  85 y(4,3,0) + v(3,4,0) - u(3,4,0) <= 85
MCLin4(3,4,0):  85 y(4,3,0) - u(3,4,0) >= -0
MCLin5(3,4,0):  -67 y(4,3,0) + v(3,4,0) - u(3,4,0) >= -67
MCLin6(4,3,0):  u(4,3,0) >= -0
MCLin7(4,3,0):  -98 y(3,4,0) - u(4,3,0) <= -0
MCLin8(4,3,0):  54 y(3,4,0) + v(4,3,0) - u(4,3,0) <= 54
MCLin9(4,3,0):  54 y(3,4,0) - u(4,3,0) >= -0
MCLin10(4,3,0):  -98 y(3,4,0) + v(4,3,0) - u(4,3,0) >= -98
MCLinV(3,4,1):  x(3,1) - v(3,4,1) - x(4,1) = 10
MCLinV(4,3,1):  - x(3,1) - v(4,3,1) + x(4,1) = 9
MCLin1(3,4,1):  u(3,4,1) >= -0
MCLin2(3,4,1):  -92 y(4,3,1) - u(3,4,1) <= -0
MCLin3(3,4,1):  60 y(4,3,1) + v(3,4,1) - u(3,4,1) <= 60
MCLin4(3,4,1):  60 y(4,3,1) - u(3,4,1) >= -0
MCLin5(3,4,1):  -92 y(4,3,1) + v(3,4,1) - u(3,4,1) >= -92
MCLin6(4,3,1):  u(4,3,1) >= -0
MCLin7(4,3,1):  -79 y(3,4,1) - u(4,3,1) <= -0
MCLin8(4,3,1):  73 y(3,4,1) + v(4,3,1) - u(4,3,1) <= 73
MCLin9(4,3,1):  73 y(3,4,1) - u(4,3,1) >= -0
MCLin10(4,3,1):  -79 y(3,4,1) + v(4,3,1) - u(4,3,1) >= -79
MCLinV(3,4,2):  x(3,2) - v(3,4,2) - x(4,2) = 6
MCLinV(4,3,2):  - x(3,2) - v(4,3,2) + x(4,2) = 1
MCLin1(3,4,2):  u(3,4,2) >= -0
MCLin2(3,4,2):  -75 y(4,3,2) - u(3,4,2) <= -0
MCLin3(3,4,2):  77 y(4,3,2) + v(3,4,2) - u(3,4,2) <= 77
MCLin4(3,4,2):  77 y(4,3,2) - u(3,4,2) >= -0
MCLin5(3,4,2):  -75 y(4,3,2) + v(3,4,2) - u(3,4,2) >= -75
MCLin6(4,3,2):  u(4,3,2) >= -0
MCLin7(4,3,2):  -84 y(3,4,2) - u(4,3,2) <= -0
MCLin8(4,3,2):  68 y(3,4,2) + v(4,3,2) - u(4,3,2) <= 68
MCLin9(4,3,2):  68 y(3,4,2) - u(4,3,2) >= -0
MCLin10(4,3,2):  -84 y(3,4,2) + v(4,3,2) - u(4,3,2) >= -84
MCLinV(3,4,3):  x(3,3) - v(3,4,3) - x(4,3) = 1
MCLinV(4,3,3):  - x(3,3) - v(4,3,3) + x(4,3) = 6
MCLin1(3,4,3):  u(3,4,3) >= -0
MCLin2(3,4,3):  -84 y(4,3,3) - u(3,4,3) <= -0
MCLin3(3,4,3):  68 y(4,3,3) + v(3,4,3) - u(3,4,3) <= 68
MCLin4(3,4,3):  68 y(4,3,3) - u(3,4,3) >= -0
MCLin5(3,4,3):  -84 y(4,3,3) + v(3,4,3) - u(3,4,3) >= -84
MCLin6(4,3,3):  u(4,3,3) >= -0
MCLin7(4,3,3):  -75 y(3,4,3) - u(4,3,3) <= -0
MCLin8(4,3,3):  77 y(3,4,3) + v(4,3,3) - u(4,3,3) <= 77
MCLin9(4,3,3):  77 y(3,4,3) - u(4,3,3) >= -0
MCLin10(4,3,3):  -75 y(3,4,3) + v(4,3,3) - u(4,3,3) >= -75
makespan(0):  C - x(0,2) >= 1
makespan(1):  C - x(1,2) >= 1
makespan(2):  C - x(2,1) >= 5
makespan(3):  C - x(3,2) >= 1
makespan(4):  C - x(4,2) >= 6
Bounds
 0 <= C <= 99
 1 <= x(0,0) <= 88
 0 <= y(0,1,0) <= 1
 0 <= y(1,0,0) <= 1
 -89 <= v(0,1,0) <= 81
 -89 <= v(1,0,0) <= 81
 -990 <= u(0,1,0)
 -990 <= u(1,0,0)
 0 <= y(0,2,0) <= 1
 0 <= y(2,0,0) <= 1
 -76 <= v(0,2,0) <= 85
 -89 <= v(2,0,0) <= 72
 -990 <= u(0,2,0)
 -990 <= u(2,0,0)
 0 <= y(0,3,0) <= 1
 0 <= y(3,0,0) <= 1
 -97 <= v(0,3,0) <= 64
 -74 <= v(3,0,0) <= 87
 -990 <= u(0,3,0)
 -990 <= u(3,0,0)
 0 <= y(0,4,0) <= 1
 0 <= y(4,0,0) <= 1
 -81 <= v(0,4,0) <= 84
 -89 <= v(4,0,0) <= 76
 -990 <= u(0,4,0)
 -990 <= u(4,0,0)
 0 <= x(1,0) <= 83
 0 <= y(1,2,0) <= 1
 0 <= y(2,1,0) <= 1
 -77 <= v(1,2,0) <= 80
 -90 <= v(2,1,0) <= 67
 -990 <= u(1,2,0)
 -990 <= u(2,1,0)
 0 <= y(1,3,0) <= 1
 0 <= y(3,1,0) <= 1
 -98 <= v(1,3,0) <= 59
 -75 <= v(3,1,0) <= 82
 -990 <= u(1,3,0)
 -990 <= u(3,1,0)
 0 <= y(1,4,0) <= 1
 0 <= y(4,1,0) <= 1
 -82 <= v(1,4,0) <= 79
 -90 <= v(4,1,0) <= 71
 -990 <= u(1,4,0)
 -990 <= u(4,1,0)
 0 <= x(2,0) <= 74
 0 <= y(2,3,0) <= 1
 0 <= y(3,2,0) <= 1
 -98 <= v(2,3,0) <= 50
 -62 <= v(3,2,0) <= 86
 -990 <= u(2,3,0)
 -990 <= u(3,2,0)
 0 <= y(2,4,0) <= 1
 0 <= y(4,2,0) <= 1
 -82 <= v(2,4,0) <= 70
 -77 <= v(4,2,0) <= 75
 -990 <= u(2,4,0)
 -990 <= u(4,2,0)
 15 <= x(3,0) <= 89
 0 <= y(3,4,0) <= 1
 0 <= y(4,3,0) <= 1
 -67 <= v(3,4,0) <= 85
 -98 <= v(4,3,0) <= 54
 -990 <= u(3,4,0)
 -990 <= u(4,3,0)
 0 <= x(4,0) <= 78
 0 <= x(0,1) <= 87
 0 <= y(0,1,1) <= 1
 0 <= y(1,0,1) <= 1
 -98 <= v(0,1,1) <= 72
 -75 <= v(1,0,1) <= 95
 -990 <= u(0,1,1)
 -990 <= u(1,0,1)
 0 <= y(0,2,1) <= 1
 0 <= y(2,0,1) <= 1
 -99 <= v(0,2,1) <= 62
 -68 <= v(2,0,1) <= 93
 -990 <= u(0,2,1)
 -990 <= u(2,0,1)
 0 <= y(0,3,1) <= 1
 0 <= y(3,0,1) <= 1
 -83 <= v(0,3,1) <= 78
 -88 <= v(3,0,1) <= 73
 -990 <= u(0,3,1)
 -990 <= u(3,0,1)
 0 <= y(0,4,1) <= 1
 0 <= y(4,0,1) <= 1
 -92 <= v(0,4,1) <= 73
 -84 <= v(4,0,1) <= 81
 -990 <= u(0,4,1)
 -990 <= u(4,0,1)
 13 <= x(1,1) <= 96
 0 <= y(1,2,1) <= 1
 0 <= y(2,1,1) <= 1
 -86 <= v(1,2,1) <= 71
 -78 <= v(2,1,1) <= 79
 -990 <= u(1,2,1)
 -990 <= u(2,1,1)
 0 <= y(1,3,1) <= 1
 0 <= y(3,1,1) <= 1
 -70 <= v(1,3,1) <= 87
 -98 <= v(3,1,1) <= 59
 -990 <= u(1,3,1)
 -990 <= u(3,1,1)
 0 <= y(1,4,1) <= 1
 0 <= y(4,1,1) <= 1
 -79 <= v(1,4,1) <= 82
 -94 <= v(4,1,1) <= 67
 -990 <= u(1,4,1)
 -990 <= u(4,1,1)
 20 <= x(2,1) <= 94
 0 <= y(2,3,1) <= 1
 0 <= y(3,2,1) <= 1
 -63 <= v(2,3,1) <= 85
 -99 <= v(3,2,1) <= 49
 -990 <= u(2,3,1)
 -990 <= u(3,2,1)
 0 <= y(2,4,1) <= 1
 0 <= y(4,2,1) <= 1
 -72 <= v(2,4,1) <= 80
 -95 <= v(4,2,1) <= 57
 -990 <= u(2,4,1)
 -990 <= u(4,2,1)
 0 <= x(3,1) <= 74
 0 <= y(3,4,1) <= 1
 0 <= y(4,3,1) <= 1
 -92 <= v(3,4,1) <= 60
 -79 <= v(4,3,1) <= 73
 -990 <= u(3,4,1)
 -990 <= u(4,3,1)
 4 <= x(4,1) <= 82
 11 <= x(0,2) <= 98
 0 <= y(0,1,2) <= 1
 0 <= y(1,0,2) <= 1
 -88 <= v(0,1,2) <= 82
 -84 <= v(1,0,2) <= 86
 -990 <= u(0,1,2)
 -990 <= u(1,0,2)
 0 <= y(0,2,2) <= 1
 0 <= y(2,0,2) <= 1
 -83 <= v(0,2,2) <= 78
 -88 <= v(2,0,2) <= 73
 -990 <= u(0,2,2)
 -990 <= u(2,0,2)
 0 <= y(0,3,2) <= 1
 0 <= y(3,0,2) <= 1
 -88 <= v(0,3,2) <= 73
 -75 <= v(3,0,2) <= 86
 -990 <= u(0,3,2)
 -990 <= u(3,0,2)
 0 <= y(0,4,2) <= 1
 0 <= y(4,0,2) <= 1
 -88 <= v(0,4,2) <= 77
 -84 <= v(4,0,2) <= 81
 -990 <= u(0,4,2)
 -990 <= u(4,0,2)
 15 <= x(1,2) <= 98
 0 <= y(1,2,2) <= 1
 0 <= y(2,1,2) <= 1
 -79 <= v(1,2,2) <= 78
 -88 <= v(2,1,2) <= 69
 -990 <= u(1,2,2)
 -990 <= u(2,1,2)
 0 <= y(1,3,2) <= 1
 0 <= y(3,1,2) <= 1
 -84 <= v(1,3,2) <= 73
 -75 <= v(3,1,2) <= 82
 -990 <= u(1,3,2)
 -990 <= u(3,1,2)
 0 <= y(1,4,2) <= 1
 0 <= y(4,1,2) <= 1
 -84 <= v(1,4,2) <= 77
 -84 <= v(4,1,2) <= 77
 -990 <= u(1,4,2)
 -990 <= u(4,1,2)
 11 <= x(2,2) <= 85
 0 <= y(2,3,2) <= 1
 0 <= y(3,2,2) <= 1
 -88 <= v(2,3,2) <= 60
 -70 <= v(3,2,2) <= 78
 -990 <= u(2,3,2)
 -990 <= u(3,2,2)
 0 <= y(2,4,2) <= 1
 0 <= y(4,2,2) <= 1
 -88 <= v(2,4,2) <= 64
 -79 <= v(4,2,2) <= 73
 -990 <= u(2,4,2)
 -990 <= u(4,2,2)
 24 <= x(3,2) <= 98
 0 <= y(3,4,2) <= 1
 0 <= y(4,3,2) <= 1
 -75 <= v(3,4,2) <= 77
 -84 <= v(4,3,2) <= 68
 -990 <= u(3,4,2)
 -990 <= u(4,3,2)
 15 <= x(4,2) <= 93
 2 <= x(0,3) <= 89
 0 <= y(0,1,3) <= 1
 0 <= y(1,0,3) <= 1
 -94 <= v(0,1,3) <= 76
 -91 <= v(1,0,3) <= 79
 -990 <= u(0,1,3)
 -990 <= u(1,0,3)
 0 <= y(0,2,3) <= 1
 0 <= y(2,0,3) <= 1
 -83 <= v(0,2,3) <= 78
 -95 <= v(2,0,3) <= 66
 -990 <= u(0,2,3)
 -990 <= u(2,0,3)
 0 <= y(0,3,3) <= 1
 0 <= y(3,0,3) <= 1
 -87 <= v(0,3,3) <= 74
 -89 <= v(3,0,3) <= 72
 -990 <= u(0,3,3)
 -990 <= u(3,0,3)
 0 <= y(0,4,3) <= 1
 0 <= y(4,0,3) <= 1
 -91 <= v(0,4,3) <= 74
 -84 <= v(4,0,3) <= 81
 -990 <= u(0,4,3)
 -990 <= u(4,0,3)
 7 <= x(1,3) <= 90
 0 <= y(1,2,3) <= 1
 0 <= y(2,1,3) <= 1
 -78 <= v(1,2,3) <= 79
 -93 <= v(2,1,3) <= 64
 -990 <= u(1,2,3)
 -990 <= u(2,1,3)
 0 <= y(1,3,3) <= 1
 0 <= y(3,1,3) <= 1
 -82 <= v(1,3,3) <= 75
 -87 <= v(3,1,3) <= 70
 -990 <= u(1,3,3)
 -990 <= u(3,1,3)
 0 <= y(1,4,3) <= 1
 0 <= y(4,1,3) <= 1
 -86 <= v(1,4,3) <= 75
 -82 <= v(4,1,3) <= 79
 -990 <= u(1,4,3)
 -990 <= u(4,1,3)
 3 <= x(2,3) <= 77
 0 <= y(2,3,3) <= 1
 0 <= y(3,2,3) <= 1
 -86 <= v(2,3,3) <= 62
 -76 <= v(3,2,3) <= 72
 -990 <= u(2,3,3)
 -990 <= u(3,2,3)
 0 <= y(2,4,3) <= 1
 0 <= y(4,2,3) <= 1
 -90 <= v(2,4,3) <= 62
 -71 <= v(4,2,3) <= 81
 -990 <= u(2,4,3)
 -990 <= u(4,2,3)
 9 <= x(3,3) <= 83
 0 <= y(3,4,3) <= 1
 0 <= y(4,3,3) <= 1
 -84 <= v(3,4,3) <= 68
 -75 <= v(4,3,3) <= 77
 -990 <= u(3,4,3)
 -990 <= u(4,3,3)
 14 <= x(4,3) <= 92
Integers
C x(0,0) y(0,1,0) y(1,0,0) v(0,1,0) v(1,0,0) u(0,1,0) u(1,0,0) y(0,2,0) y(2,0,0) 
v(0,2,0) v(2,0,0) u(0,2,0) u(2,0,0) y(0,3,0) y(3,0,0) v(0,3,0) v(3,0,0) u(0,3,0) u(3,0,0) 
y(0,4,0) y(4,0,0) v(0,4,0) v(4,0,0) u(0,4,0) u(4,0,0) x(1,0) y(1,2,0) y(2,1,0) v(1,2,0) 
v(2,1,0) u(1,2,0) u(2,1,0) y(1,3,0) y(3,1,0) v(1,3,0) v(3,1,0) u(1,3,0) u(3,1,0) y(1,4,0) 
y(4,1,0) v(1,4,0) v(4,1,0) u(1,4,0) u(4,1,0) x(2,0) y(2,3,0) y(3,2,0) v(2,3,0) v(3,2,0) 
u(2,3,0) u(3,2,0) y(2,4,0) y(4,2,0) v(2,4,0) v(4,2,0) u(2,4,0) u(4,2,0) x(3,0) y(3,4,0) 
y(4,3,0) v(3,4,0) v(4,3,0) u(3,4,0) u(4,3,0) x(4,0) x(0,1) y(0,1,1) y(1,0,1) v(0,1,1) 
v(1,0,1) u(0,1,1) u(1,0,1) y(0,2,1) y(2,0,1) v(0,2,1) v(2,0,1) u(0,2,1) u(2,0,1) y(0,3,1) 
y(3,0,1) v(0,3,1) v(3,0,1) u(0,3,1) u(3,0,1) y(0,4,1) y(4,0,1) v(0,4,1) v(4,0,1) u(0,4,1) 
u(4,0,1) x(1,1) y(1,2,1) y(2,1,1) v(1,2,1) v(2,1,1) u(1,2,1) u(2,1,1) y(1,3,1) y(3,1,1) 
v(1,3,1) v(3,1,1) u(1,3,1) u(3,1,1) y(1,4,1) y(4,1,1) v(1,4,1) v(4,1,1) u(1,4,1) u(4,1,1) 
x(2,1) y(2,3,1) y(3,2,1) v(2,3,1) v(3,2,1) u(2,3,1) u(3,2,1) y(2,4,1) y(4,2,1) v(2,4,1) 
v(4,2,1) u(2,4,1) u(4,2,1) x(3,1) y(3,4,1) y(4,3,1) v(3,4,1) v(4,3,1) u(3,4,1) u(4,3,1) 
x(4,1) x(0,2) y(0,1,2) y(1,0,2) v(0,1,2) v(1,0,2) u(0,1,2) u(1,0,2) y(0,2,2) y(2,0,2) 
v(0,2,2) v(2,0,2) u(0,2,2) u(2,0,2) y(0,3,2) y(3,0,2) v(0,3,2) v(3,0,2) u(0,3,2) u(3,0,2) 
y(0,4,2) y(4,0,2) v(0,4,2) v(4,0,2) u(0,4,2) u(4,0,2) x(1,2) y(1,2,2) y(2,1,2) v(1,2,2) 
v(2,1,2) u(1,2,2) u(2,1,2) y(1,3,2) y(3,1,2) v(1,3,2) v(3,1,2) u(1,3,2) u(3,1,2) y(1,4,2) 
y(4,1,2) v(1,4,2) v(4,1,2) u(1,4,2) u(4,1,2) x(2,2) y(2,3,2) y(3,2,2) v(2,3,2) v(3,2,2) 
u(2,3,2) u(3,2,2) y(2,4,2) y(4,2,2) v(2,4,2) v(4,2,2) u(2,4,2) u(4,2,2) x(3,2) y(3,4,2) 
y(4,3,2) v(3,4,2) v(4,3,2) u(3,4,2) u(4,3,2) x(4,2) x(0,3) y(0,1,3) y(1,0,3) v(0,1,3) 
v(1,0,3) u(0,1,3) u(1,0,3) y(0,2,3) y(2,0,3) v(0,2,3) v(2,0,3) u(0,2,3) u(2,0,3) y(0,3,3) 
y(3,0,3) v(0,3,3) v(3,0,3) u(0,3,3) u(3,0,3) y(0,4,3) y(4,0,3) v(0,4,3) v(4,0,3) u(0,4,3) 
u(4,0,3) x(1,3) y(1,2,3) y(2,1,3) v(1,2,3) v(2,1,3) u(1,2,3) u(2,1,3) y(1,3,3) y(3,1,3) 
v(1,3,3) v(3,1,3) u(1,3,3) u(3,1,3) y(1,4,3) y(4,1,3) v(1,4,3) v(4,1,3) u(1,4,3) u(4,1,3) 
x(2,3) y(2,3,3) y(3,2,3) v(2,3,3) v(3,2,3) u(2,3,3) u(3,2,3) y(2,4,3) y(4,2,3) v(2,4,3) 
v(4,2,3) u(2,4,3) u(4,2,3) x(3,3) y(3,4,3) y(4,3,3) v(3,4,3) v(4,3,3) u(3,4,3) u(4,3,3) 
x(4,3) 
End
